Route #1: 23 16 45 11 31 15 1
Route #2: 37 7 43 14 30
Route #3: 46 49 2 22 42 32 20 47 39 52 55
Route #4: 35 4 29 40 38 9 17 33
Route #5: 6 44 21 18 53 12 26 48
Route #6: 50 10 3 41 19 25 51 36
Route #7: 54 27 24 13 5 56 34 8 28
cost 1555.20849609375